Problem:    04
Rows:       4
Columns:    4
Non-zeros:  12
Status:     OPTIMAL
Objective:  0 (MINimum)

   No.   Row name   St   Activity     Lower bound   Upper bound    Marginal
------ ------------ -- ------------- ------------- ------------- -------------
     1 Bilanciamento[0]
                    NS             0            -0             =         < eps
     2 Bilanciamento[1]
                    NS             0            -0             =         < eps
     3 Bilanciamento[2]
                    NS             0            -0             =         < eps
     4 Normalizzazione
                    NS             1             1             =         < eps

   No. Column name  St   Activity     Lower bound   Upper bound    Marginal
------ ------------ -- ------------- ------------- ------------- -------------
     1 P[0]         B      0.0526836             0               
     2 P[1]         B       0.263418             0               
     3 P[2]         B       0.441225             0               
     4 P[3]         B       0.242674             0               

Karush-Kuhn-Tucker optimality conditions:

KKT.PE: max.abs.err = 2.78e-017 on row 2
        max.rel.err = 1.90e-017 on row 2
        High quality

KKT.PB: max.abs.err = 0.00e+000 on row 0
        max.rel.err = 0.00e+000 on row 0
        High quality

KKT.DE: max.abs.err = 0.00e+000 on column 0
        max.rel.err = 0.00e+000 on column 0
        High quality

KKT.DB: max.abs.err = 0.00e+000 on row 0
        max.rel.err = 0.00e+000 on row 0
        High quality

End of output
